benchmarks_vrp/CMT11/no_cluster/CMT11_2.vrp
NAME: CMT11_2
TYPE: CVRP
COMMENT: 1042.11 - Cluster Nr.2
DIMENSION: 19
CAPACITY: 200
EDGE_WEIGHT_TYPE: EUC_2D
NODE_COORD_TYPE: TWOD_COORDS
NODE_COORD_SECTION: 
11 25 37
10 22 44
9 16 54
3 14 50
4 30 55
6 18 49
16 5 50
7 15 51
12 16 48
17 30 50
18 20 50
5 25 45
1 22 51
14 25 52
2 18 53
13 20 55
8 30 46
15 5 40
19 10 45
DEPOT_SECTION: 
19
-1
DEMAND_SECTION: 
10 10
19 0
4 12
5 17
2 7
3 8
17 7
1 7
18 11
7 6
11 13
8 11
13 12
14 10
16 13
9 5
6 9
15 20
12 11
EOF
