benchmarks_vrp/CMT11/no_cluster/CMT11_2.tour
NAME: CMT11_2 solution
TYPE: TOUR
TOUR_SECTION:
19 12 6 18 10 5 11 8 17 4 14 1 13 2 9 7 3 16 15 -1
-1
EOF